p cnf 49 175
4 -2 0
4 3 0
2 -3 -4 0
6 4 0
6 5 0
-4 -5 -6 0
8 -7 0
8 -1 0
7 1 -8 0
6 8 -9 0
-6 -8 -9 0
6 -8 9 0
-6 8 9 0
-10 -9 0
-10 3 0
9 -3 10 0
11 1 0
11 10 0
-1 -10 -11 0
-13 -12 0
-13 3 0
12 -3 13 0
15 14 0
15 8 0
-14 -8 -15 0
15 -4 -16 0
-15 4 -16 0
15 4 16 0
-15 -4 16 0
17 4 0
17 -16 0
-4 16 -17 0
13 17 -18 0
-13 -17 -18 0
13 -17 18 0
-13 17 18 0
-1 -7 -19 0
1 7 -19 0
-1 7 19 0
1 -7 19 0
-18 19 -20 0
18 -19 -20 0
-18 -19 20 0
18 19 20 0
21 -5 -22 0
-21 5 -22 0
21 5 22 0
-21 -5 22 0
-24 22 0
-24 -23 0
-22 23 24 0
-10 16 -25 0
10 -16 -25 0
-10 -16 25 0
10 16 25 0
-26 4 0
-26 25 0
-4 -25 26 0
-27 -25 0
-27 -3 0
25 3 27 0
28 27 0
28 25 0
-27 -25 -28 0
29 -9 0
29 -14 0
9 14 -29 0
-28 29 -30 0
28 -29 -30 0
-28 -29 30 0
28 29 30 0
26 -30 -31 0
-26 30 -31 0
26 30 31 0
-26 -30 31 0
-24 31 -32 0
24 -31 -32 0
-24 -31 32 0
24 31 32 0
33 20 0
33 32 0
-20 -32 -33 0
34 -15 0
34 -2 0
15 2 -34 0
14 -3 -35 0
-14 3 -35 0
14 3 35 0
-14 -3 35 0
-36 6 -37 0
36 -6 -37 0
-36 -6 37 0
36 6 37 0
-35 37 -38 0
35 -37 -38 0
-35 -37 38 0
35 37 38 0
-39 38 0
-39 -37 0
-38 37 39 0
40 -34 0
40 -39 0
34 39 -40 0
41 -33 0
41 40 0
33 -40 -41 0
-11 -41 -42 0
11 41 -42 0
-11 41 42 0
11 -41 42 0
21 9 -43 0
-21 -9 -43 0
21 -9 43 0
-21 9 43 0
-44 -8 0
-44 -10 0
8 10 44 0
-43 -44 -45 0
43 44 -45 0
-43 44 45 0
43 -44 45 0
46 25 0
46 -12 0
-25 12 -46 0
47 -3 0
47 -46 0
3 46 -47 0
45 -47 -48 0
-45 47 -48 0
45 47 48 0
-45 -47 48 0
49 -42 0
49 -48 0
42 48 -49 0
-21 27 -37 8 0
-14 -30 -43 0
-34 35 0
25 -3 -6 -12 -8 -21 0
-23 4 0
11 -12 36 -46 0
-44 9 -49 0
-26 -15 16 -14 -34 -45 0
35 -46 -3 2 0
-13 26 -22 0
-33 49 32 12 25 0
12 -1 11 -29 -37 -23 0
-9 -25 -48 0
5 -44 -47 -14 -10 0
38 32 0
33 -45 -22 -14 0
22 28 0
11 -27 10 -26 -39 0
24 7 2 9 15 0
26 -41 45 0
-15 10 0
40 -13 -7 0
11 6 -5 31 0
48 11 -31 0
-5 -19 22 11 0
-23 16 0
-5 44 -31 0
36 -16 -4 0
26 31 -28 0
24 -6 -15 -27 0
-25 -23 0
36 -8 5 0
18 -39 1 -25 40 0
-16 46 -2 41 -21 0
-41 -4 -14 0
-7 14 -15 22 -42 -39 0
16 38 -28 0
-19 -27 -18 0
18 -17 -33 0
20 4 45 -43 0
49 0
